p cnf 93
-1 -1
-2 -11
-3 -15
-4 -19
-5 -23
-6 -27
-7 -31
-8 -35
-9 -1
-9 2
1 -2 9
-10 1
-10 -2
-1 2 10
-11 -9
-11 -10
9 10 11
-12 1
-12 2
-1 -2 12
-13 3
-13 -12
-3 12 13
-14 -3
-14 12
3 -12 14
-15 -13
-15 -14
13 14 15
-16 3
-16 12
-3 -12 16
-17 4
-17 -16
-4 16 17
-18 -4
-18 16
4 -16 18
-19 -17
-19 -18
17 18 19
-20 4
-20 16
-4 -16 20
-21 5
-21 -20
-5 20 21
-22 -5
-22 20
5 -20 22
-23 -21
-23 -22
21 22 23
-24 5
-24 20
-5 -20 24
-25 6
-25 -24
-6 24 25
-26 -6
-26 24
6 -24 26
-27 -25
-27 -26
25 26 27
-28 6
-28 24
-6 -24 28
-29 7
-29 -28
-7 28 29
-30 -7
-30 28
7 -28 30
-31 -29
-31 -30
29 30 31
-32 7
-32 28
-7 -28 32
-33 8
-33 -32
-8 32 33
-34 -8
-34 32
8 -32 34
-35 -33
-35 -34
33 34 35
-36 8
-36 32
-8 -32 36
36
